; benchmark generated from python API
(set-info :status unknown)
(declare-datatypes ((RealState 0)) (((RMk1 (rval1 Real)) (RMk2 (rval2 Real)))))
 (assert
 (forall ((|v17:0| Real) )(forall ((|v16:1| Real) )(forall ((|v15:2| Real) )(forall ((|v14:3| Real) )(forall ((|v13:4| Real) )(forall ((|v12:5| Real) )(exists ((|v11:6_st| RealState) (val!9804 Real) )(exists ((|v10:7_st| RealState) (val!9805 Real) )(exists ((|v9:8_st| RealState) (val!9806 Real) )(exists ((|v8:9_st| RealState) (val!9807 Real) )(exists ((|v7:10_st| RealState) (val!9808 Real) )(exists ((|v6:11_st| RealState) (val!9809 Real) )(forall ((|v5:12| Real) )(forall ((|v4:13| Real) )(forall ((|v3:14| Real) )(forall ((|v2:15| Real) )(forall ((|v1:16| Real) )(forall ((|v0:17| Real) )(let ((?x2364 (- 3.0)))
 (let ((?x9403 (* 6.0 |v14:3|)))
 (let ((?x4934 (- 4.0)))
 (let ((?x750 (* ?x4934 |v17:0|)))
 (let ((?x4892 (+ (+ (+ (* (- 17.0) |v5:12|) (* 11.0 |v13:4|)) (* 11.0 (rval2 |v8:9_st|))) (* (- 7.0) (rval2 |v9:8_st|)))))
 (let ((?x8846 (- 18.0)))
 (let ((?x8076 (- 7.0)))
 (let ((?x6513 (* ?x8076 |v5:12|)))
 (let ((?x7187 (* 17.0 |v0:17|)))
 (let ((?x932 (+ (+ (* 13.0 (rval2 |v9:8_st|)) (* ?x4934 (rval2 |v9:8_st|))) (* 12.0 (rval2 |v7:10_st|)))))
 (let ((?x2188 (+ (+ (+ (+ ?x932 (* 3.0 (rval2 |v10:7_st|))) (* (- 6.0) |v12:5|)) ?x7187) ?x6513)))
 (let ((?x6828 (- 8.0)))
 (let ((?x2367 (- 14.0)))
 (let ((?x1025 (* ?x2367 |v2:15|)))
 (let ((?x1000 (* ?x2364 |v1:16|)))
 (let ((?x1452 (* ?x8076 |v14:3|)))
 (let ((?x1245 (+ (+ (* 4.0 |v5:12|) (* (- 11.0) |v5:12|)) (* 14.0 |v5:12|))))
 (let ((?x5219 (* 6.0 |v3:14|)))
 (let ((?x8348 (* 15.0 |v14:3|)))
 (let ((?x7054 (rval2 |v8:9_st|)))
 (let ((?x4643 (* 3.0 ?x7054)))
 (let ((?x1182 (+ (+ (* (- 11.0) (rval2 |v6:11_st|)) (* (- 12.0) (rval2 |v10:7_st|))) ?x4643)))
 (let ((?x871 (+ (+ (+ (+ ?x1182 ?x8348) ?x5219) (* (- 19.0) (rval2 |v6:11_st|))) (* 16.0 (rval2 |v6:11_st|)))))
 (let (($x7459 (and (<= ?x871 7.0) (<= (+ (+ (+ (+ ?x1245 ?x1452) ?x1000) (* (- 15.0) |v17:0|)) ?x1025) ?x6828))))
 (let ((?x8130 (- 6.0)))
 (let ((?x4621 (* 2.0 |v13:4|)))
 (let ((?x1688 (+ (+ (+ (* 8.0 |v15:2|) (* ?x8846 |v0:17|)) (* (- 20.0) |v15:2|)) (* 9.0 (rval2 |v6:11_st|)))))
 (let (($x6154 (<= (+ (+ (+ ?x1688 ?x4621) (* 0.0 |v13:4|)) (* ?x2364 (rval2 |v6:11_st|))) ?x8130)))
 (let ((?x7112 (rval2 |v11:6_st|)))
 (let ((?x6937 (- 19.0)))
 (let ((?x8072 (* ?x6937 ?x7112)))
 (let ((?x7369 (- 20.0)))
 (let ((?x4454 (* ?x7369 |v2:15|)))
 (let ((?x8840 (* 11.0 |v13:4|)))
 (let ((?x4049 (+ (+ (+ (* 2.0 |v4:13|) (* 13.0 (rval2 |v9:8_st|))) ?x6513) (* (- 1.0) (rval2 |v10:7_st|)))))
 (let ((?x6015 (- 2.0)))
 (let ((?x6528 (rval2 |v7:10_st|)))
 (let ((?x4738 (* 20.0 ?x6528)))
 (let ((?x856 (- 5.0)))
 (let ((?x1127 (* ?x856 |v1:16|)))
 (let ((?x3081 (- 13.0)))
 (let ((?x4504 (* ?x3081 |v17:0|)))
 (let ((?x6401 (rval2 |v9:8_st|)))
 (let ((?x2488 (* 17.0 ?x6401)))
 (let ((?x1820 (+ (+ (+ (* 13.0 |v0:17|) (* 15.0 (rval2 |v10:7_st|))) (* 18.0 |v14:3|)) ?x2488)))
 (let (($x6851 (or (<= (+ (+ (+ ?x1820 ?x4504) ?x1127) ?x4738) ?x6015) (<= (+ (+ (+ ?x4049 ?x8840) ?x4454) ?x8072) ?x8076))))
 (let ((?x7172 (- 10.0)))
 (let ((?x2823 (* ?x7172 |v3:14|)))
 (let ((?x5912 (+ (+ (+ (+ ?x2488 (* 13.0 |v16:1|)) (* 11.0 |v4:13|)) (* 15.0 ?x7054)) ?x2823)))
 (let ((?x6152 (- 11.0)))
 (let ((?x6910 (* 18.0 |v17:0|)))
 (let ((?x1170 (* ?x6937 |v1:16|)))
 (let ((?x5750 (- 1.0)))
 (let ((?x1958 (* ?x5750 |v5:12|)))
 (let ((?x9422 (+ (+ (+ (* ?x2367 ?x7054) (* ?x6937 |v17:0|)) (* 19.0 |v14:3|)) (* ?x6015 (rval2 |v6:11_st|)))))
 (let (($x5046 (or (<= (+ (+ (+ ?x9422 ?x1958) ?x1170) ?x6910) ?x6152) (<= (+ (+ ?x5912 ?x4504) (* (- 15.0) |v14:3|)) 19.0))))
 (let ((?x6295 (* 16.0 ?x6528)))
 (let ((?x219 (* ?x2367 ?x7054)))
 (let ((?x8698 (* ?x2367 |v0:17|)))
 (let ((?x7912 (+ (+ (+ (+ (* ?x7172 ?x7054) (* 15.0 ?x6401)) (* 13.0 |v17:0|)) ?x8698) ?x219)))
 (let ((?x2563 (- 15.0)))
 (let ((?x7661 (* ?x2563 |v2:15|)))
 (let ((?x8222 (* 6.0 ?x7112)))
 (let ((?x3710 (* 15.0 ?x6401)))
 (let ((?x6046 (+ (+ (+ (* 10.0 |v14:3|) (* 2.0 |v0:17|)) (* 12.0 (rval2 |v10:7_st|))) ?x3710)))
 (let (($x4694 (or (<= (+ (+ (+ ?x6046 ?x8222) (* ?x2563 ?x6528)) ?x7661) ?x8846) (<= (+ (+ ?x7912 ?x6910) ?x6295) ?x4934))))
 (let ((?x5781 (* ?x2364 |v14:3|)))
 (let ((?x29 (* ?x7172 |v0:17|)))
 (let ((?x6478 (+ (+ (+ (+ (* ?x2364 |v13:4|) (* ?x6152 ?x7054)) (* 16.0 ?x6401)) ?x29) (* ?x7172 ?x6401))))
 (let ((?x3398 (- 17.0)))
 (let ((?x6056 (* ?x3398 |v0:17|)))
 (let ((?x6424 (+ (+ (+ (* 3.0 |v17:0|) ?x5781) (* ?x6015 (rval2 |v10:7_st|))) (* ?x8130 ?x7054))))
 (let (($x713 (<= (+ (+ (+ ?x6424 ?x6056) (* 2.0 ?x7112)) (* (- 9.0) |v14:3|)) ?x6015)))
 (let (($x191 (or (or (or $x713 (<= (+ (+ ?x6478 |v12:5|) ?x5781) 10.0)) $x4694) (and $x5046 $x6851))))
 (let ((?x6925 (* 11.0 |v1:16|)))
 (let ((?x7430 (* 15.0 |v3:14|)))
 (let ((?x3558 (+ (+ (+ (* (- 12.0) (rval2 |v6:11_st|)) (* 16.0 |v15:2|)) ?x4621) (* (- 16.0) ?x7112))))
 (let (($x3174 (and (<= (+ (+ (+ ?x3558 ?x7430) ?x750) ?x6925) ?x7172) (and $x191 (or (and $x6154 $x7459) (<= ?x2188 ?x8846))))))
 (let ((?x7108 (- 16.0)))
 (let ((?x9389 (* 2.0 ?x7054)))
 (let ((?x4953 (* ?x3081 |v5:12|)))
 (let ((?x3257 (* ?x5750 |v2:15|)))
 (let ((?x4552 (+ (+ (+ (+ (* ?x4934 |v14:3|) (* 8.0 |v3:14|)) (* (- 12.0) |v4:13|)) ?x3710) ?x3257)))
 (let ((?x7845 (rval2 |v10:7_st|)))
 (let ((?x3703 (* 15.0 ?x7845)))
 (let ((?x4489 (* 8.0 ?x7112)))
 (let ((?x6907 (+ (+ (+ (+ (* 6.0 |v4:13|) (* 5.0 |v12:5|)) (* 5.0 |v17:0|)) ?x4489) ?x3703)))
 (let ((?x2277 (* 2.0 ?x7845)))
 (let ((?x2014 (rval2 |v6:11_st|)))
 (let ((?x1104 (* 12.0 ?x7845)))
 (let ((?x7021 (+ (+ (+ (+ (* ?x6937 |v5:12|) (* (- 12.0) |v4:13|)) (* ?x3398 ?x7845)) ?x1104) (* ?x6937 |v16:1|))))
 (let (($x4196 (and (<= (+ (+ ?x7021 ?x2014) ?x2277) 8.0) (<= (+ (+ ?x6907 (* 2.0 |v12:5|)) ?x9389) 5.0))))
 (let ((?x2579 (- 12.0)))
 (let ((?x2420 (* 2.0 |v4:13|)))
 (let ((?x3206 (* 10.0 |v3:14|)))
 (let ((?x1239 (* 7.0 ?x6528)))
 (let ((?x7671 (+ (+ (+ (+ (* ?x7172 |v1:16|) (* ?x3398 |v17:0|)) (* 7.0 ?x7845)) ?x1239) ?x3206)))
 (let ((?x2613 (* 16.0 ?x7054)))
 (let ((?x2835 (* ?x3081 |v3:14|)))
 (let ((?x5495 (+ (+ (+ (+ ?x29 (* ?x3398 ?x6528)) (* 3.0 ?x6401)) (* 0.0 |v16:1|)) ?x2835)))
 (let (($x3528 (and (<= (+ (+ ?x5495 (* 14.0 ?x7112)) ?x2613) 5.0) (<= (+ (+ ?x7671 ?x2420) (* ?x6152 ?x7112)) ?x2579))))
 (let ((?x9110 (+ (+ (+ (* ?x7172 ?x6528) (* 16.0 |v16:1|)) (* ?x3398 |v12:5|)) (* 9.0 ?x6528))))
 (let ((?x5416 (* ?x8846 |v14:3|)))
 (let ((?x7772 (* ?x6015 |v0:17|)))
 (let ((?x3564 (+ (+ (+ (+ ?x6295 (* 10.0 ?x7845)) (* 15.0 |v2:15|)) (* 0.0 ?x7054)) (* ?x6015 |v13:4|))))
 (let (($x7022 (or (<= (+ (+ ?x3564 ?x7772) ?x5416) ?x856) (<= (+ (+ (+ ?x9110 (* ?x8846 |v13:4|)) (* ?x7369 ?x6528)) ?x1170) ?x8130))))
 (let ((?x8687 (* 17.0 |v3:14|)))
 (let ((?x5031 (* 20.0 |v5:12|)))
 (let ((?x2242 (* 5.0 |v13:4|)))
 (let ((?x4925 (* 14.0 |v16:1|)))
 (let ((?x8945 (+ (+ (+ (+ (* 17.0 |v4:13|) (* 6.0 |v0:17|)) (* 14.0 |v14:3|)) ?x4925) ?x2242)))
 (let ((?x8686 (* ?x2367 |v5:12|)))
 (let ((?x7622 (* ?x4934 |v1:16|)))
 (let ((?x5200 (+ (+ (+ (+ (* 5.0 |v5:12|) (* 7.0 |v12:5|)) (* ?x3081 |v14:3|)) ?x7622) (* ?x7369 |v16:1|))))
 (let (($x1583 (and (<= (+ (+ ?x5200 ?x8686) (* 8.0 ?x7845)) 1.0) (<= (+ (+ ?x8945 ?x5031) ?x8687) 14.0))))
 (let ((?x904 (* ?x4934 |v2:15|)))
 (let ((?x6143 (* ?x2364 |v2:15|)))
 (let ((?x379 (* ?x6937 |v12:5|)))
 (let ((?x8030 (+ (+ (+ (+ (* ?x2364 |v13:4|) (* 4.0 ?x6401)) (* 5.0 |v17:0|)) ?x379) ?x6143)))
 (let ((?x3786 (* 16.0 |v5:12|)))
 (let ((?x7849 (* 16.0 |v4:13|)))
 (let ((?x4824 (+ (+ (+ (* ?x2367 ?x7845) (* ?x2367 ?x2014)) (* 8.0 |v3:14|)) (* ?x3081 ?x7054))))
 (let ((?x2814 (* 3.0 |v5:12|)))
 (let ((?x4904 (* 20.0 ?x7112)))
 (let ((?x5475 (+ (+ (+ (+ ?x2242 (* 19.0 |v1:16|)) (* 18.0 |v4:13|)) (* ?x6937 |v2:15|)) ?x4904)))
 (let (($x4181 (or (<= (+ (+ ?x5475 (* ?x7108 ?x2014)) ?x2814) ?x7369) (<= (+ (+ (+ ?x4824 (* ?x2364 ?x7054)) ?x7849) ?x3786) ?x2563))))
 (let ((?x1632 (* ?x5750 |v3:14|)))
 (let ((?x2547 (+ (+ (+ (+ (* 14.0 |v3:14|) (* 4.0 |v14:3|)) (* 7.0 ?x2014)) ?x1632) (* ?x2563 ?x7054))))
 (let ((?x8473 (* 15.0 |v17:0|)))
 (let ((?x2887 (* 2.0 |v5:12|)))
 (let ((?x7359 (+ (+ (+ (* 13.0 |v2:15|) (* ?x2579 |v0:17|)) (* 8.0 ?x2014)) (* ?x2563 |v16:1|))))
 (let (($x1255 (or (<= (+ (+ (+ ?x7359 ?x2887) (* ?x6828 |v17:0|)) ?x8473) ?x4934) (<= (+ (+ ?x2547 ?x4621) (* 0.0 ?x6401)) 2.0))))
 (let ((?x5763 (* 8.0 |v4:13|)))
 (let ((?x2630 (* ?x3081 |v15:2|)))
 (let ((?x8092 (* 5.0 |v17:0|)))
 (let ((?x9241 (+ (+ (+ (+ (* 17.0 ?x7054) (* ?x6937 |v15:2|)) (* ?x4934 ?x7054)) ?x8092) (* ?x2579 |v17:0|))))
 (let ((?x5322 (* 13.0 |v2:15|)))
 (let ((?x3713 (* ?x2563 ?x2014)))
 (let ((?x873 (+ (+ (+ (* 13.0 ?x6401) (* 0.0 ?x6528)) (* 16.0 |v0:17|)) (* ?x8130 |v16:1|))))
 (let (($x592 (and (<= (+ (+ (+ ?x873 ?x3713) (* ?x6015 ?x6401)) ?x5322) ?x2364) (<= (+ (+ ?x9241 ?x2630) ?x5763) 7.0))))
 (let (($x6057 (and (and $x592 $x1255) (and $x4181 (<= (+ (+ ?x8030 ?x904) (* ?x2367 |v16:1|)) 5.0)))))
 (let ((?x8772 (* ?x6937 |v2:15|)))
 (let ((?x7898 (* ?x7172 |v1:16|)))
 (let ((?x4654 (+ (+ (+ (+ (* ?x6015 |v15:2|) (* 5.0 ?x6401)) ?x6401) (* ?x4934 |v5:12|)) (* 14.0 ?x6401))))
 (let ((?x942 (* 18.0 |v3:14|)))
 (let ((?x2765 (* ?x3398 |v5:12|)))
 (let ((?x9435 (+ (+ (+ (+ (* 0.0 ?x7112) (* ?x3398 |v1:16|)) ?x2420) (* ?x2367 |v17:0|)) ?x2765)))
 (let (($x580 (and (<= (+ (+ ?x9435 ?x4738) ?x942) ?x2364) (<= (+ (+ ?x4654 ?x7898) ?x8772) ?x7108))))
 (let ((?x7745 (* ?x3081 ?x6401)))
 (let ((?x9427 (+ (+ (* ?x5750 |v4:13|) (* ?x7108 |v0:17|)) (* ?x3398 |v2:15|))))
 (let (($x4612 (<= (+ (+ (+ (+ ?x9427 (* ?x856 ?x7845)) (* ?x8076 |v17:0|)) ?x7745) ?x8072) ?x6152)))
 (let ((?x5665 (* ?x2563 ?x7112)))
 (let ((?x8169 (* 3.0 |v15:2|)))
 (let ((?x2334 (+ (+ (+ (+ (* 14.0 ?x6528) (* ?x5750 |v0:17|)) (* 3.0 |v0:17|)) ?x8169) (* ?x8846 ?x6401))))
 (let ((?x2582 (* ?x2579 |v5:12|)))
 (let ((?x5204 (* 3.0 |v0:17|)))
 (let ((?x822 (* ?x3081 |v14:3|)))
 (let ((?x3871 (+ (+ (+ (+ ?x7745 (* 5.0 |v12:5|)) (* 7.0 |v2:15|)) (* ?x2579 |v15:2|)) ?x822)))
 (let ((?x2993 (* 7.0 |v17:0|)))
 (let ((?x8007 (+ (+ (+ (+ ?x7661 (* 16.0 |v0:17|)) ?x5665) (* 5.0 ?x6528)) (* 6.0 |v17:0|))))
 (let (($x7281 (and (<= (+ (+ ?x8007 (* ?x3398 ?x7054)) ?x2993) ?x3398) (<= (+ (+ ?x3871 ?x5204) ?x2582) 11.0))))
 (let ((?x4809 (+ (+ (+ (+ (* ?x2364 |v15:2|) ?x2488) ?x6925) (* 12.0 |v12:5|)) (* 13.0 ?x7845))))
 (let ((?x7998 (* 20.0 |v12:5|)))
 (let ((?x9159 (* ?x5750 |v0:17|)))
 (let ((?x3762 (* ?x8130 |v5:12|)))
 (let ((?x4867 (+ (+ (+ (+ |v14:3| (* ?x7172 ?x2014)) (* 8.0 ?x6401)) (* ?x3398 |v13:4|)) ?x3762)))
 (let (($x9470 (or (<= (+ (+ ?x4867 ?x9159) ?x7998) 20.0) (<= (+ (+ ?x4809 (* 0.0 ?x2014)) (* ?x3398 ?x2014)) ?x2579))))
 (let (($x4211 (and (or $x9470 $x7281) (or (and (<= (+ (+ ?x2334 ?x5665) (* 4.0 ?x7112)) 6.0) $x4612) $x580))))
 (let ((?x1761 (* 13.0 ?x6528)))
 (let ((?x971 (* ?x2563 |v1:16|)))
 (let ((?x28 (* 16.0 |v12:5|)))
 (let ((?x7514 (* 4.0 |v2:15|)))
 (let ((?x8750 (+ (+ (+ (+ (* ?x3081 |v4:13|) (* 19.0 |v0:17|)) (* 4.0 |v13:4|)) ?x7514) ?x28)))
 (let ((?x1028 (* 17.0 |v4:13|)))
 (let ((?x1477 (+ (+ (+ (+ (* 13.0 |v5:12|) (* 19.0 |v17:0|)) (* ?x7369 |v1:16|)) ?x1028) ?x1452)))
 (let ((?x8432 (+ (+ (+ (* ?x6152 |v1:16|) (* 16.0 |v1:16|)) (* ?x7108 ?x7054)) (* (- 9.0) ?x7845))))
 (let (($x2994 (and (<= (+ (+ (+ ?x8432 ?x2993) (* ?x856 |v16:1|)) (* 19.0 ?x7054)) 2.0) (<= (+ (+ ?x1477 (* ?x856 ?x6401)) (* 19.0 ?x6401)) ?x856))))
 (let ((?x7017 (* ?x2579 |v2:15|)))
 (let ((?x906 (* ?x8130 |v1:16|)))
 (let ((?x6053 (+ (+ (+ (+ (* 12.0 |v12:5|) (* ?x3398 ?x6528)) (* ?x7108 |v14:3|)) ?x906) (* 20.0 |v13:4|))))
 (let ((?x1407 (* ?x8846 |v3:14|)))
 (let ((?x1418 (+ (+ (+ (+ (* 15.0 |v2:15|) |v1:16|) (* 3.0 ?x2014)) (* ?x2579 |v4:13|)) (* ?x2579 |v12:5|))))
 (let (($x717 (and (<= (+ (+ ?x1418 ?x6528) ?x1407) ?x3081) (<= (+ (+ ?x6053 ?x2630) ?x7017) ?x3081))))
 (let ((?x4224 (+ (+ (+ (+ (* ?x8076 ?x7112) ?x7622) (* ?x3081 |v16:1|)) (* 13.0 ?x7112)) (* ?x6152 |v14:3|))))
 (let ((?x8105 (+ (+ (+ (+ (* 5.0 |v1:16|) (* ?x6152 ?x7054)) (* 14.0 |v2:15|)) ?x3713) (* (- 9.0) |v17:0|))))
 (let (($x2510 (and (<= (+ (+ ?x8105 ?x379) (* 17.0 ?x7845)) 10.0) (<= (+ (+ ?x4224 ?x5416) (* ?x7172 |v17:0|)) ?x3398))))
 (let (($x6413 (or (and (or $x2510 $x717) (and $x2994 (<= (+ (+ ?x8750 ?x971) ?x1761) ?x6828))) $x4211)))
 (let (($x2940 (or (and $x6413 (or $x6057 (or (and $x1583 $x7022) (or $x3528 $x4196)))) (<= (+ (+ ?x4552 ?x4953) ?x9389) ?x7108))))
 (let (($x4184 (not (= |v6:11_st| (RMk1 val!9809)))))
 (let (($x3947 (not (= |v7:10_st| (RMk1 val!9808)))))
 (let (($x3746 (not (= |v8:9_st| (RMk1 val!9807)))))
 (let (($x3505 (not (= |v9:8_st| (RMk1 val!9806)))))
 (let (($x1202 (not (= |v10:7_st| (RMk1 val!9805)))))
 (let (($x2351 (not (= |v11:6_st| (RMk1 val!9804)))))
 (and $x2351 $x1202 $x3505 $x3746 $x3947 $x4184 (or $x2940 (or $x3174 (<= (+ (+ (+ ?x4892 ?x750) ?x9403) |v2:15|) ?x2364)))))))))))))))))))))))))))))))))))))))))))))))))))))))))))))))))))))))))))))))))))))))))))))))))))))))))))))))))))))))))))))))))))))))))))))))))))))))))))))))))))))))))))))))))))))))))))))))))))))))
 )
 )
 )
 )
 )
 )
 )
 )
 )
 )
 )
 )
 )
 )
 )
 )
 )
 )
(check-sat)
